Minimize
  - 18 y_0 - 4 y_1 - 11 y_2 - 21 y_3 - 25 y_4 - 28 y_5 - 16 y_6 - 18 y_7
   - 12 y_8 - 26 y_9 - 23 y_10 - 27 y_11 - 26 y_12 - 20 y_13 - 28 y_14
   - 9 y_15 - 17 y_16 - 28 y_17 - 22 y_18 - 32 y_19 - 25 y_20 - 21 y_21
   - 9 y_22 - 17 y_23 - 17 y_24 - 29 y_25 - 10 y_26 - 30 y_27 - 12 y_28
   - 2 y_29 - 23 y_30 - 17 y_31 - 21 y_32 - 24 y_33 - 15 y_34 - 21 y_36
   - 22 y_37 - 28 y_38 - 25 y_39 - 21 y_40 - 12 y_41 - 7 y_42 - 17 y_43
   - 19 y_44 - 8 y_45 - 23 y_46 - 28 y_47 - 12 y_48 - 16 y_49 - 21 y_50
   - 12 y_51 - 21 y_52 - 22 y_53 - 17 y_54 - 19 y_55 - 18 y_56 - 20 y_57
   - 14 y_58 - 31 y_59 - 16 y_60 - 25 y_61 - 19 y_62 - 26 y_63 - 6 y_64
   - 10 y_65 - 25 y_66 - 22 y_67 - 5 y_68 - 26 y_69 - 24 y_70 - 22 y_71
   - 30 y_72 - 25 y_73 - 10 y_74 - 28 y_75 - 24 y_76 - 25 y_77 - 18 y_78
   - 14 y_79 - 15 y_80 - 26 y_81 - 15 y_82 - 26 y_83 - 29 y_84 - 20 y_85
   - 25 y_86 - 8 y_87 - 19 y_88 - 17 y_89 - 9 y_90 - 20 y_91 - 25 y_92
   - 26 y_93 - 19 y_94 - 16 y_95 - 11 y_96 - 25 y_97 - 12 y_98 - 27 y_99
   + 1927 Constant
Subject To
 c_0: y_93 = 1
 c_1_0: y_0 + y_7 + y_24 >= 1
 c_1_1: y_1 + y_68 >= 1
 c_1_2: y_2 >= 1
 c_1_3: y_3 >= 1
 c_1_4: y_4 + y_46 >= 1
 c_1_5: y_5 + y_17 >= 1
 c_1_6: y_6 >= 1
 c_1_7: y_0 + y_7 + y_24 >= 1
 c_1_8: y_8 >= 1
 c_1_9: y_9 >= 1
 c_1_10: y_10 >= 1
 c_1_11: y_11 >= 1
 c_1_12: y_12 >= 1
 c_1_13: y_13 >= 1
 c_1_14: y_14 + y_84 >= 1
 c_1_15: y_15 + y_74 >= 1
 c_1_16: y_16 + y_54 >= 1
 c_1_17: y_5 + y_17 + y_27 >= 1
 c_1_18: y_18 + y_70 >= 1
 c_1_19: y_19 >= 1
 c_1_20: y_20 >= 1
 c_1_21: y_21 >= 1
 c_1_22: y_22 + y_42 + y_51 + y_96 >= 1
 c_1_23: y_23 >= 1
 c_1_24: y_0 + y_7 + y_24 >= 1
 c_1_25: y_25 >= 1
 c_1_26: y_26 >= 1
 c_1_27: y_17 + y_27 >= 1
 c_1_28: y_28 >= 1
 c_1_29: y_29 + y_35 >= 1
 c_1_30: y_30 >= 1
 c_1_31: y_31 + y_55 >= 1
 c_1_32: y_32 >= 1
 c_1_33: y_33 >= 1
 c_1_34: y_34 >= 1
 c_1_35: y_29 + y_35 >= 1
 c_1_36: y_36 + y_52 >= 1
 c_1_37: y_37 + y_40 >= 1
 c_1_38: y_38 + y_63 >= 1
 c_1_39: y_39 >= 1
 c_1_40: y_37 + y_40 >= 1
 c_1_41: y_41 + y_51 >= 1
 c_1_42: y_22 + y_42 + y_68 >= 1
 c_1_43: y_43 >= 1
 c_1_44: y_44 >= 1
 c_1_45: y_45 + y_87 >= 1
 c_1_46: y_4 + y_46 >= 1
 c_1_47: y_47 + y_75 >= 1
 c_1_48: y_48 + y_74 >= 1
 c_1_49: y_49 >= 1
 c_1_50: y_50 + y_88 >= 1
 c_1_51: y_22 + y_41 + y_51 + y_96 >= 1
 c_1_52: y_36 + y_52 >= 1
 c_1_53: y_53 + y_67 + y_71 >= 1
 c_1_54: y_16 + y_54 >= 1
 c_1_55: y_31 + y_55 >= 1
 c_1_56: y_56 + y_82 + y_89 >= 1
 c_1_57: y_57 >= 1
 c_1_58: y_58 + y_98 >= 1
 c_1_59: y_59 + y_72 >= 1
 c_1_60: y_60 >= 1
 c_1_61: y_61 + y_76 + y_92 >= 1
 c_1_62: y_62 >= 1
 c_1_63: y_38 + y_63 + y_70 >= 1
 c_1_64: y_64 >= 1
 c_1_65: y_65 >= 1
 c_1_66: y_66 >= 1
 c_1_67: y_53 + y_67 + y_71 >= 1
 c_1_68: y_1 + y_42 + y_68 >= 1
 c_1_69: y_69 >= 1
 c_1_70: y_18 + y_63 + y_70 >= 1
 c_1_71: y_53 + y_67 + y_71 >= 1
 c_1_72: y_59 + y_72 >= 1
 c_1_73: y_73 + y_97 >= 1
 c_1_74: y_15 + y_48 + y_74 >= 1
 c_1_75: y_47 + y_75 >= 1
 c_1_76: y_61 + y_76 + y_92 + y_93 >= 1
 c_1_77: y_77 >= 1
 c_1_78: y_78 >= 1
 c_1_79: y_79 >= 1
 c_1_80: y_80 >= 1
 c_1_81: y_81 >= 1
 c_1_82: y_56 + y_82 + y_89 >= 1
 c_1_83: y_83 + y_99 >= 1
 c_1_84: y_14 + y_84 >= 1
 c_1_85: y_85 >= 1
 c_1_86: y_86 >= 1
 c_1_87: y_45 + y_87 >= 1
 c_1_88: y_50 + y_88 >= 1
 c_1_89: y_56 + y_82 + y_89 >= 1
 c_1_90: y_90 >= 1
 c_1_91: y_91 >= 1
 c_1_92: y_61 + y_76 + y_92 >= 1
 c_1_93: y_76 + y_93 >= 1
 c_1_94: y_94 >= 1
 c_1_95: y_95 >= 1
 c_1_96: y_22 + y_51 + y_96 >= 1
 c_1_97: y_73 + y_97 >= 1
 c_1_98: y_58 + y_98 >= 1
 c_1_99: y_83 + y_99 >= 1
Bounds
 Constant = 1
Binaries
 y_0 y_1 y_2 y_3 y_4 y_5 y_6 y_7 y_8 y_9 y_10 y_11 y_12 y_13 y_14 y_15 y_16
 y_17 y_18 y_19 y_20 y_21 y_22 y_23 y_24 y_25 y_26 y_27 y_28 y_29 y_30 y_31
 y_32 y_33 y_34 y_35 y_36 y_37 y_38 y_39 y_40 y_41 y_42 y_43 y_44 y_45 y_46
 y_47 y_48 y_49 y_50 y_51 y_52 y_53 y_54 y_55 y_56 y_57 y_58 y_59 y_60 y_61
 y_62 y_63 y_64 y_65 y_66 y_67 y_68 y_69 y_70 y_71 y_72 y_73 y_74 y_75 y_76
 y_77 y_78 y_79 y_80 y_81 y_82 y_83 y_84 y_85 y_86 y_87 y_88 y_89 y_90 y_91
 y_92 y_93 y_94 y_95 y_96 y_97 y_98 y_99
End
